glucose-syrup/simp/tmp.cnf
p cnf 22 49
c 8 col(1,g)
c 9 col(1,b)
c 10 col(1,r)
c 11 col(2,g)
c 12 col(2,b)
c 13 col(2,r)
c 14 col(3,g)
c 15 col(3,b)
c 16 col(3,r)
c 17 node(1)
c 18 node(2)
c 19 node(3)
c 20 edge(1,2)
c 21 edge(1,3)
c 22 edge(2,3)
8 9 10 0
-8 -9 0
-8 -10 0
9 8 10 0
-9 -8 0
-9 -10 0
10 8 9 0
-10 -8 0
-10 -9 0
11 12 13 0
-11 -12 0
-11 -13 0
12 11 13 0
-12 -11 0
-12 -13 0
13 11 12 0
-13 -11 0
-13 -12 0
14 15 16 0
-14 -15 0
-14 -16 0
15 14 16 0
-15 -14 0
-15 -16 0
16 14 15 0
-16 -14 0
-16 -15 0
-11 -8 0
-12 -9 0
-13 -10 0
-14 -8 0
-15 -9 0
-16 -10 0
-14 -11 0
-15 -12 0
-16 -13 0
17 0
18 0
19 0
20 0
21 0
22 0
-1 0
-2 0
-3 0
-4 0
-5 0
-6 0
-7 0
